n=214;
k_min=7;
k_max=7;
M=[| 166, 141, 146, 145, 126, 126, 146
 | 166, 138, 151, 150, 126, 120, 146
 | 164, 139, 152, 150, 126, 121, 145
 | 165, 141, 149, 148, 126, 123, 145
 | 163, 141, 151, 149, 125, 122, 145
 | 165, 142, 150, 148, 126, 122, 144
 | 164, 141, 151, 148, 125, 122, 145
 | 164, 142, 151, 147, 125, 123, 145
 | 166, 139, 149, 147, 127, 121, 147
 | 165, 143, 150, 147, 125, 123, 145
 | 164, 142, 150, 148, 126, 122, 144
 | 164, 144, 149, 146, 125, 124, 144
 | 164, 142, 151, 148, 126, 122, 144
 | 164, 143, 150, 147, 125, 124, 144
 | 163, 145, 150, 146, 125, 125, 144
 | 164, 144, 150, 146, 125, 124, 144
 | 163, 145, 149, 145, 125, 126, 144
 | 164, 143, 145, 143, 126, 127, 149
 | 166, 142, 148, 144, 124, 125, 148
 | 164, 143, 149, 147, 125, 123, 145
 | 164, 144, 149, 146, 125, 124, 145
 | 166, 143, 147, 143, 124, 125, 149
 | 164, 144, 148, 145, 125, 125, 145
 | 164, 144, 149, 146, 125, 124, 145
 | 164, 142, 150, 146, 125, 123, 146
 | 165, 143, 149, 146, 125, 124, 145
 | 165, 142, 149, 147, 125, 123, 146
 | 165, 143, 150, 146, 125, 123, 145
 | 163, 145, 149, 146, 125, 125, 144
 | 166, 143, 149, 146, 124, 123, 145
 | 163, 145, 149, 145, 125, 125, 144
 | 163, 144, 150, 146, 124, 125, 145
 | 164, 144, 149, 146, 125, 124, 145
 | 163, 145, 150, 145, 125, 125, 144
 | 163, 145, 148, 145, 125, 125, 145
 | 165, 142, 150, 146, 125, 123, 146
 | 166, 141, 147, 145, 126, 124, 148
 | 164, 145, 149, 145, 125, 125, 145
 | 163, 144, 146, 141, 125, 129, 149
 | 163, 144, 146, 141, 125, 129, 149
 | 164, 145, 149, 145, 124, 125, 145
 | 163, 145, 149, 145, 124, 125, 145
 | 165, 143, 149, 146, 125, 123, 146
 | 164, 144, 145, 141, 125, 130, 148
 | 163, 145, 148, 145, 125, 126, 145
 | 164, 143, 146, 144, 126, 125, 148
 | 164, 144, 149, 144, 124, 125, 147
 | 164, 145, 144, 140, 125, 130, 149
 | 164, 147, 144, 139, 124, 132, 147
 | 164, 142, 147, 144, 126, 125, 148
 | 166, 145, 144, 139, 124, 131, 148
 | 162, 145, 147, 143, 125, 126, 148
 | 161, 144, 150, 143, 124, 125, 149
 | 162, 145, 149, 142, 123, 126, 149
 | 162, 145, 150, 142, 123, 125, 149
 | 166, 148, 149, 140, 121, 126, 145
 | 164, 143, 150, 147, 125, 123, 145
 | 165, 143, 149, 146, 125, 123, 145
 | 163, 140, 151, 149, 126, 122, 145
 | 165, 141, 150, 148, 125, 122, 145
 | 166, 142, 149, 144, 123, 124, 147
 | 166, 141, 147, 146, 126, 124, 148
 | 163, 144, 145, 142, 126, 129, 148
 | 163, 144, 144, 141, 126, 130, 149
 | 163, 145, 145, 141, 124, 129, 148
 | 163, 144, 146, 142, 124, 128, 149
 | 166, 147, 144, 139, 123, 130, 147
 | 166, 147, 145, 139, 123, 131, 147
 | 166, 147, 145, 139, 123, 130, 147
 | 164, 147, 144, 138, 123, 132, 148
 | 166, 138, 149, 150, 128, 119, 146
 | 166, 140, 147, 147, 127, 123, 146
 | 165, 140, 151, 150, 126, 121, 144
 | 164, 140, 151, 150, 126, 121, 145
 | 165, 141, 151, 149, 126, 121, 144
 | 165, 141, 151, 149, 126, 121, 144
 | 165, 140, 149, 149, 127, 121, 145
 | 165, 141, 150, 149, 126, 122, 144
 | 165, 139, 152, 149, 125, 121, 146
 | 164, 142, 150, 149, 127, 122, 144
 | 163, 141, 149, 149, 128, 122, 144
 | 164, 140, 152, 150, 126, 121, 145
 | 164, 140, 151, 149, 126, 122, 145
 | 165, 141, 150, 149, 126, 121, 144
 | 166, 135, 150, 154, 131, 116, 145
 | 164, 141, 150, 148, 125, 122, 146
 | 163, 141, 152, 148, 125, 122, 145
 | 165, 140, 150, 149, 126, 121, 145
 | 165, 142, 150, 148, 126, 122, 144
 | 164, 143, 150, 148, 126, 123, 143
 | 163, 145, 146, 144, 126, 127, 146
 | 164, 143, 150, 147, 125, 123, 145
 | 166, 142, 152, 145, 122, 123, 146
 | 164, 142, 152, 147, 124, 122, 146
 | 164, 143, 150, 147, 125, 123, 144
 | 164, 142, 148, 146, 126, 124, 147
 | 162, 145, 147, 143, 126, 127, 146
 | 166, 147, 148, 142, 123, 127, 143
 | 166, 144, 150, 144, 124, 123, 145
 | 163, 145, 150, 144, 124, 124, 147
 | 166, 145, 150, 143, 122, 124, 146
 | 166, 148, 146, 140, 123, 127, 146
 | 166, 149, 149, 139, 120, 129, 146
 | 166, 148, 142, 132, 124, 137, 147
 | 166, 148, 144, 133, 122, 133, 150
 | 145, 156, 144, 126, 127, 155, 144
 | 146, 149, 143, 133, 134, 149, 143
 | 148, 151, 141, 128, 130, 155, 143
 | 147, 166, 150, 124, 117, 138, 154
 | 148, 156, 150, 130, 121, 140, 151
 | 144, 153, 141, 126, 125, 165, 142
 | 144, 152, 141, 126, 126, 166, 142
 | 147, 156, 142, 125, 124, 158, 144
 | 166, 140, 149, 148, 126, 122, 145
 | 166, 142, 147, 147, 126, 124, 144
 | 166, 141, 148, 148, 126, 123, 145
 | 166, 141, 148, 147, 126, 123, 145
 | 166, 138, 148, 150, 128, 120, 145
 | 166, 140, 149, 149, 127, 121, 145
 | 164, 139, 150, 149, 127, 121, 146
 | 166, 141, 148, 147, 126, 123, 145
 | 165, 141, 150, 149, 126, 122, 144
 | 164, 141, 150, 148, 126, 122, 145
 | 165, 140, 150, 149, 127, 120, 146
 | 165, 142, 149, 146, 125, 124, 145
 | 166, 143, 148, 146, 126, 124, 145
 | 165, 143, 148, 146, 125, 124, 145
 | 159, 148, 148, 137, 123, 128, 154
 | 159, 147, 150, 138, 123, 126, 153
 | 155, 153, 151, 130, 121, 131, 156
 | 153, 157, 150, 127, 119, 136, 155
 | 149, 159, 145, 124, 124, 149, 147
 | 165, 140, 149, 148, 127, 123, 145
 | 164, 140, 147, 148, 128, 123, 146
 | 164, 141, 150, 148, 126, 122, 145
 | 165, 142, 148, 147, 126, 124, 145
 | 164, 143, 150, 147, 125, 124, 144
 | 166, 142, 150, 148, 126, 122, 144
 | 166, 141, 151, 149, 125, 121, 143
 | 166, 141, 150, 149, 126, 121, 143
 | 166, 140, 149, 148, 126, 121, 145
 | 166, 142, 149, 147, 125, 123, 145
 | 164, 142, 150, 148, 126, 123, 144
 | 164, 142, 149, 148, 127, 122, 145
 | 163, 145, 150, 144, 124, 125, 146
 | 164, 144, 148, 145, 126, 125, 145
 | 165, 142, 150, 145, 123, 124, 147
 | 164, 141, 150, 147, 126, 122, 146
 | 165, 142, 149, 147, 125, 123, 146
 | 162, 146, 148, 145, 126, 126, 143
 | 164, 142, 149, 147, 126, 123, 146
 | 163, 144, 145, 142, 126, 128, 149
 | 163, 143, 150, 144, 123, 126, 147
 | 164, 141, 150, 147, 125, 122, 146
 | 164, 144, 148, 145, 125, 125, 145
 | 165, 143, 150, 145, 124, 124, 146
 | 164, 142, 150, 145, 125, 124, 147
 | 163, 144, 145, 141, 125, 129, 149
 | 165, 142, 147, 145, 126, 124, 148
 | 166, 142, 147, 144, 126, 124, 148
 | 164, 143, 147, 144, 126, 125, 148
 | 164, 143, 149, 144, 123, 126, 148
 | 166, 142, 145, 143, 126, 126, 148
 | 151, 136, 149, 152, 143, 123, 142
 | 158, 151, 149, 134, 122, 132, 150
 | 153, 162, 143, 129, 122, 143, 145
 | 150, 166, 142, 129, 122, 146, 142
 | 147, 156, 150, 127, 122, 145, 149
 | 149, 151, 152, 132, 126, 136, 150
 | 147, 159, 152, 126, 121, 140, 152
 | 147, 166, 148, 122, 120, 144, 150
 | 143, 136, 143, 143, 166, 127, 139
 | 143, 136, 143, 143, 165, 127, 139
 | 147, 164, 147, 123, 120, 147, 149
 | 156, 148, 151, 136, 126, 129, 151
 | 148, 157, 151, 127, 120, 142, 151
 | 163, 147, 149, 137, 120, 126, 154
 | 160, 148, 149, 137, 120, 129, 154
 | 166, 146, 150, 138, 119, 122, 156
 | 163, 146, 151, 138, 120, 124, 155
 | 152, 141, 166, 145, 123, 121, 148
 | 155, 153, 155, 128, 116, 123, 166
 | 149, 158, 156, 125, 118, 134, 157
 | 148, 161, 150, 127, 119, 138, 154
 | 147, 144, 153, 144, 133, 128, 148
 | 156, 133, 148, 166, 137, 117, 140
 | 156, 135, 149, 158, 138, 119, 142
 | 163, 143, 148, 145, 125, 125, 148
 | 155, 146, 147, 138, 131, 127, 152
 | 166, 143, 147, 141, 129, 122, 149
 | 158, 145, 154, 142, 122, 123, 153
 | 150, 147, 165, 136, 123, 122, 155
 | 150, 147, 163, 135, 123, 125, 154
 | 149, 146, 163, 138, 125, 123, 153
 | 149, 146, 165, 138, 124, 123, 152
 | 150, 147, 164, 134, 123, 124, 154
 | 149, 149, 162, 133, 122, 126, 154
 | 150, 148, 166, 134, 121, 122, 155
 | 150, 147, 166, 134, 122, 123, 155
 | 150, 147, 163, 135, 123, 121, 156
 | 150, 146, 162, 138, 125, 122, 154
 | 149, 147, 147, 140, 137, 134, 143
 | 150, 146, 162, 138, 125, 123, 153
 | 149, 145, 163, 140, 126, 122, 152
 | 150, 147, 164, 136, 123, 122, 155
 | 150, 147, 162, 138, 124, 123, 153
 | 150, 147, 162, 137, 124, 123, 154
 | 146, 138, 166, 148, 136, 120, 143
 | 150, 149, 166, 131, 121, 124, 156
 | 150, 147, 162, 135, 125, 125, 154
 | 149, 146, 162, 139, 125, 122, 153
 | 149, 145, 166, 139, 124, 123, 151
 | 149, 145, 165, 139, 124, 123, 151
 | 149, 146, 165, 138, 124, 124, 152 |];
 P=[1, 1, 1, 1, 1, 1, 1, 1, 1, 1, 1, 1, 1, 1, 1, 1, 1, 1, 1, 1, 1, 1, 1, 1, 1, 1, 1, 1, 1, 1, 1, 1, 1, 1, 1, 1, 1, 1, 1, 1, 1, 1, 1, 1, 1, 1, 1, 1, 1, 1, 1, 1, 1, 1, 1, 1, 1, 1, 1, 1, 1, 1, 1, 1, 1, 1, 1, 1, 1, 1, 1, 1, 1, 1, 1, 1, 1, 1, 1, 1, 1, 1, 1, 1, 1, 1, 1, 1, 1, 1, 1, 1, 1, 1, 1, 1, 1, 1, 1, 1, 1, 1, 1, 1, 1, 6, 6, 6, 2, 2, 6, 6, 6, 1, 1, 1, 1, 1, 1, 1, 1, 1, 1, 1, 1, 1, 1, 1, 1, 1, 2, 6, 1, 1, 1, 1, 1, 1, 1, 1, 1, 1, 1, 1, 1, 1, 1, 1, 1, 1, 1, 1, 1, 1, 1, 1, 1, 1, 1, 1, 1, 1, 1, 4, 1, 2, 2, 2, 2, 2, 2, 5, 5, 2, 1, 2, 1, 1, 1, 1, 3, 7, 2, 2, 3, 4, 4, 1, 1, 1, 7, 3, 3, 3, 3, 3, 3, 3, 3, 3, 3, 2, 3, 3, 3, 3, 3, 3, 3, 3, 3, 3, 3, 3 ];